# Objective value = 560
FairSkew 0.125
S_0 0
S_1 0
S_2 1
S_3 0
S_4 0
S_5 0
S_6 0
S_7 0
S_8 0
S_9 0
S_10 0
S_11 0
S_12 0
FairCross 0.375
w_0_0 0
y_1_0_2 0
w_1_0 0
w_1_2 0
y_2_0_2 0
w_2_0 0
w_2_2 0
y_3_0_2 0
y_3_0_4 0
y_3_2_4 0
w_3_0 1
w_3_2 0
w_3_4 0
y_4_0_2 0
y_4_0_4 0
y_4_0_5 0
y_4_2_4 0
y_4_2_5 1
y_4_4_5 0
w_4_0 0
w_4_2 1
w_4_4 0
w_4_5 1
y_5_0_2 0
y_5_0_4 0
y_5_0_5 0
y_5_2_4 0
y_5_2_5 0
y_5_4_5 0
w_5_0 0
w_5_2 0
w_5_4 0
w_5_5 0
y_6_0_2 0
y_6_0_4 0
y_6_0_5 0
y_6_2_4 0
y_6_2_5 0
y_6_4_5 0
w_6_0 0
w_6_2 0
w_6_4 0
w_6_5 0
y_7_0_2 0
y_7_0_4 0
y_7_0_5 0
y_7_2_4 0
y_7_2_5 1
y_7_4_5 0
w_7_0 0
w_7_2 1
w_7_4 0
w_7_5 2
y_8_0_2 0
y_8_0_4 0
y_8_0_5 0
y_8_2_4 0
y_8_2_5 0
y_8_4_5 0
w_8_0 0
w_8_2 0
w_8_4 0
w_8_5 0
y_9_0_2 0
y_9_0_4 0
y_9_0_5 0
y_9_2_4 0
y_9_2_5 1
y_9_4_5 0
w_9_0 0
w_9_2 1
w_9_4 0
w_9_5 1
y_10_0_2 0
y_10_0_4 0
y_10_0_5 0
y_10_2_4 0
y_10_2_5 0
y_10_4_5 0
w_10_0 0
w_10_2 0
w_10_4 0
w_10_5 0
y_11_0_2 0
y_11_0_4 0
y_11_0_5 0
y_11_2_4 0
y_11_2_5 0
y_11_4_5 0
w_11_0 0
w_11_2 0
w_11_4 0
w_11_5 0
y_12_0_2 0
y_12_0_4 0
y_12_0_5 0
y_12_2_4 0
y_12_2_5 0
y_12_4_5 0
w_12_0 0
w_12_2 0
w_12_4 0
w_12_5 0
y_13_0_2 0
y_13_0_4 0
y_13_0_5 0
y_13_2_4 0
y_13_2_5 1
y_13_4_5 0
w_13_0 0
w_13_2 1
w_13_4 0
w_13_5 1
y_14_0_2 0
y_14_0_4 0
y_14_0_5 0
y_14_2_4 0
y_14_2_5 1
y_14_4_5 0
w_14_0 1
w_14_2 2
w_14_4 1
w_14_5 0
y_15_0_2 0
y_15_0_4 0
y_15_0_5 0
y_15_0_6 0
y_15_2_4 0
y_15_2_5 0
y_15_2_6 0
y_15_4_5 0
y_15_4_6 0
y_15_5_6 0
w_15_0 0
w_15_2 0
w_15_4 1
w_15_5 0
w_15_6 0
y_16_0_2 0
y_16_0_4 0
y_16_0_5 0
y_16_2_4 0
y_16_2_5 0
y_16_4_5 0
w_16_0 0
w_16_2 0
w_16_4 1
w_16_5 0
y_17_0_2 0
y_17_0_4 0
y_17_0_5 0
y_17_2_4 0
y_17_2_5 0
y_17_4_5 0
w_17_0 0
w_17_2 0
w_17_4 0
w_17_5 0
y_18_0_2 0
y_18_0_4 0
y_18_0_5 0
y_18_2_4 0
y_18_2_5 0
y_18_4_5 0
w_18_0 0
w_18_2 0
w_18_4 0
w_18_5 0
y_19_0_2 0
y_19_0_4 0
y_19_2_4 0
w_19_0 0
w_19_2 0
w_19_4 1
y_20_0_2 0
y_20_0_4 0
y_20_2_4 0
w_20_0 0
w_20_2 0
w_20_4 0
y_21_0_2 0
y_21_0_4 0
y_21_2_4 0
w_21_0 0
w_21_2 0
w_21_4 0
y_22_0_2 0
y_22_0_4 0
y_22_2_4 0
w_22_0 0
w_22_2 0
w_22_4 0
y_23_0_2 0
y_23_0_4 0
y_23_2_4 0
w_23_0 0
w_23_2 0
w_23_4 0
y_24_0_2 0
y_24_0_4 0
y_24_2_4 0
w_24_0 0
w_24_2 0
w_24_4 1
y_25_0_2 0
y_25_0_4 0
y_25_0_8 0
y_25_2_4 0
y_25_2_8 0
y_25_4_8 0
w_25_0 0
w_25_2 0
w_25_4 0
w_25_8 0
y_26_0_2 0
y_26_0_4 0
y_26_0_8 0
y_26_2_4 0
y_26_2_8 0
y_26_4_8 0
w_26_0 0
w_26_2 0
w_26_4 1
w_26_8 1
y_27_0_2 0
y_27_0_4 0
y_27_0_8 0
y_27_0_9 0
y_27_2_4 0
y_27_2_8 1
y_27_2_9 1
y_27_4_8 0
y_27_4_9 0
y_27_8_9 0
w_27_0 0
w_27_2 2
w_27_4 0
w_27_8 1
w_27_9 1
y_28_0_2 0
y_28_0_4 0
y_28_0_8 0
y_28_0_9 0
y_28_2_4 0
y_28_2_8 0
y_28_2_9 0
y_28_4_8 0
y_28_4_9 0
y_28_8_9 0
w_28_0 0
w_28_2 0
w_28_4 0
w_28_8 0
w_28_9 0
y_29_0_2 0
y_29_0_4 0
y_29_0_8 0
y_29_0_9 0
y_29_2_4 0
y_29_2_8 0
y_29_2_9 0
y_29_4_8 0
y_29_4_9 0
y_29_8_9 0
w_29_0 0
w_29_2 0
w_29_4 0
w_29_8 0
w_29_9 0
y_30_0_2 0
y_30_0_4 0
y_30_0_8 0
y_30_0_9 0
y_30_2_4 0
y_30_2_8 0
y_30_2_9 0
y_30_4_8 0
y_30_4_9 0
y_30_8_9 0
w_30_0 0
w_30_2 0
w_30_4 0
w_30_8 0
w_30_9 0
y_31_0_2 0
y_31_0_4 0
y_31_0_8 0
y_31_0_9 0
y_31_2_4 0
y_31_2_8 0
y_31_2_9 0
y_31_4_8 0
y_31_4_9 0
y_31_8_9 0
w_31_0 0
w_31_2 0
w_31_4 0
w_31_8 0
w_31_9 0
y_32_0_2 0
y_32_0_4 0
y_32_0_8 0
y_32_0_9 0
y_32_2_4 0
y_32_2_8 0
y_32_2_9 0
y_32_4_8 0
y_32_4_9 0
y_32_8_9 0
w_32_0 0
w_32_2 0
w_32_4 0
w_32_8 0
w_32_9 0
y_33_0_2 0
y_33_0_4 0
y_33_0_8 0
y_33_0_9 0
y_33_2_4 0
y_33_2_8 0
y_33_2_9 0
y_33_4_8 0
y_33_4_9 0
y_33_8_9 0
w_33_0 0
w_33_2 0
w_33_4 0
w_33_8 0
w_33_9 0
y_34_0_2 0
y_34_0_4 0
y_34_0_8 0
y_34_0_9 0
y_34_2_4 0
y_34_2_8 0
y_34_2_9 0
y_34_4_8 0
y_34_4_9 0
y_34_8_9 0
w_34_0 0
w_34_2 0
w_34_4 0
w_34_8 0
w_34_9 0
y_35_0_2 0
y_35_0_4 0
y_35_0_8 0
y_35_0_9 0
y_35_2_4 0
y_35_2_8 0
y_35_2_9 0
y_35_4_8 0
y_35_4_9 0
y_35_8_9 0
w_35_0 0
w_35_2 0
w_35_4 0
w_35_8 0
w_35_9 0
y_36_0_2 0
y_36_0_4 0
y_36_0_8 0
y_36_0_9 0
y_36_2_4 0
y_36_2_8 0
y_36_2_9 0
y_36_4_8 0
y_36_4_9 0
y_36_8_9 0
w_36_0 0
w_36_2 0
w_36_4 1
w_36_8 0
w_36_9 0
y_37_0_2 0
y_37_0_4 0
y_37_0_8 0
y_37_0_9 0
y_37_0_10 0
y_37_2_4 0
y_37_2_8 0
y_37_2_9 0
y_37_2_10 0
y_37_4_8 0
y_37_4_9 0
y_37_4_10 0
y_37_8_9 0
y_37_8_10 0
y_37_9_10 0
w_37_0 0
w_37_2 0
w_37_4 0
w_37_8 0
w_37_9 0
w_37_10 0
y_38_0_2 0
y_38_0_4 0
y_38_0_8 0
y_38_0_9 0
y_38_0_10 0
y_38_2_4 0
y_38_2_8 0
y_38_2_9 0
y_38_2_10 0
y_38_4_8 0
y_38_4_9 0
y_38_4_10 0
y_38_8_9 0
y_38_8_10 0
y_38_9_10 0
w_38_0 0
w_38_2 0
w_38_4 0
w_38_8 0
w_38_9 0
w_38_10 0
y_39_2_4 0
y_39_2_8 0
y_39_2_9 0
y_39_2_10 0
y_39_4_8 0
y_39_4_9 0
y_39_4_10 0
y_39_8_9 0
y_39_8_10 0
y_39_9_10 0
w_39_2 0
w_39_4 0
w_39_8 0
w_39_9 0
w_39_10 0
y_40_2_4 0
y_40_2_9 0
y_40_2_10 0
y_40_4_9 0
y_40_4_10 0
y_40_9_10 0
w_40_2 1
w_40_4 1
w_40_9 0
w_40_10 1
y_41_2_4 0
y_41_2_10 0
y_41_4_10 0
w_41_2 1
w_41_4 0
w_41_10 1
y_42_2_4 0
y_42_2_10 0
y_42_2_11 0
y_42_4_10 0
y_42_4_11 0
y_42_10_11 0
w_42_2 0
w_42_4 0
w_42_10 0
w_42_11 0
y_43_2_4 0
y_43_2_10 0
y_43_2_11 0
y_43_4_10 0
y_43_4_11 0
y_43_10_11 0
w_43_2 0
w_43_4 0
w_43_10 0
w_43_11 0
y_44_2_4 0
y_44_2_10 0
y_44_2_11 0
y_44_4_10 0
y_44_4_11 0
y_44_10_11 0
w_44_2 0
w_44_4 0
w_44_10 0
w_44_11 0
y_45_2_4 0
y_45_2_10 0
y_45_2_11 0
y_45_4_10 0
y_45_4_11 0
y_45_10_11 0
w_45_2 0
w_45_4 0
w_45_10 0
w_45_11 0
y_46_2_4 0
y_46_2_10 1
y_46_2_11 1
y_46_4_10 0
y_46_4_11 0
y_46_10_11 0
w_46_2 2
w_46_4 0
w_46_10 13
w_46_11 1
y_47_2_10 0
y_47_2_11 1
y_47_10_11 0
w_47_2 0
w_47_10 1
w_47_11 2
y_48_2_10 0
y_48_2_11 0
y_48_2_12 0
y_48_10_11 0
y_48_10_12 0
y_48_11_12 0
w_48_2 0
w_48_10 0
w_48_11 0
w_48_12 0
y_49_2_10 0
y_49_2_11 0
y_49_2_12 0
y_49_10_11 0
y_49_10_12 0
y_49_11_12 0
w_49_2 0
w_49_10 0
w_49_11 0
w_49_12 0
y_50_2_10 0
y_50_2_11 0
y_50_10_11 0
w_50_2 0
w_50_10 0
w_50_11 0
y_51_2_10 0
y_51_2_11 0
y_51_10_11 0
w_51_2 0
w_51_10 0
w_51_11 0
y_52_2_10 0
w_52_2 0
w_52_10 0
FairWiggle 0
x_1_0_2 0
x_2_0_2 0
beta_1_0_2 1
x_3_0_2 0
beta_2_0_2 1
x_4_0_2 0
beta_3_0_2 1
x_3_0_4 0
x_4_0_4 0
beta_3_0_4 1
x_3_2_4 0
x_4_2_4 0
beta_3_2_4 1
x_5_0_2 0
beta_4_0_2 1
x_5_0_4 0
beta_4_0_4 1
x_4_0_5 0
x_5_0_5 0
beta_4_0_5 1
x_5_2_4 0
beta_4_2_4 1
x_4_2_5 1
x_5_2_5 0
beta_4_2_5 0
x_4_4_5 1
x_5_4_5 1
beta_4_4_5 0
x_6_0_2 0
beta_5_0_2 1
x_6_0_4 0
beta_5_0_4 1
x_6_0_5 0
beta_5_0_5 1
x_6_2_4 0
beta_5_2_4 1
x_6_2_5 0
beta_5_2_5 1
x_6_4_5 1
beta_5_4_5 0
x_7_0_2 0
beta_6_0_2 1
x_7_0_4 0
beta_6_0_4 1
x_7_0_5 0
beta_6_0_5 1
x_7_2_4 0
beta_6_2_4 1
x_7_2_5 0
beta_6_2_5 1
x_7_4_5 1
beta_6_4_5 0
x_8_0_2 0
beta_7_0_2 1
x_8_0_4 0
beta_7_0_4 1
x_8_0_5 0
beta_7_0_5 1
x_8_2_4 0
beta_7_2_4 1
x_8_2_5 1
beta_7_2_5 0
x_8_4_5 1
beta_7_4_5 0
x_9_0_2 0
beta_8_0_2 1
x_9_0_4 0
beta_8_0_4 1
x_9_0_5 0
beta_8_0_5 1
x_9_2_4 0
beta_8_2_4 1
x_9_2_5 1
beta_8_2_5 0
x_9_4_5 1
beta_8_4_5 0
x_10_0_2 0
beta_9_0_2 1
x_10_0_4 0
beta_9_0_4 1
x_10_0_5 0
beta_9_0_5 1
x_10_2_4 0
beta_9_2_4 1
x_10_2_5 0
beta_9_2_5 0
x_10_4_5 1
beta_9_4_5 0
x_11_0_2 0
beta_10_0_2 1
x_11_0_4 0
beta_10_0_4 1
x_11_0_5 0
beta_10_0_5 1
x_11_2_4 0
beta_10_2_4 1
x_11_2_5 0
beta_10_2_5 1
x_11_4_5 1
beta_10_4_5 0
x_12_0_2 0
beta_11_0_2 1
x_12_0_4 0
beta_11_0_4 1
x_12_0_5 0
beta_11_0_5 1
x_12_2_4 0
beta_11_2_4 1
x_12_2_5 0
beta_11_2_5 1
x_12_4_5 1
beta_11_4_5 0
x_13_0_2 0
beta_12_0_2 1
x_13_0_4 0
beta_12_0_4 1
x_13_0_5 0
beta_12_0_5 1
x_13_2_4 0
beta_12_2_4 1
x_13_2_5 0
beta_12_2_5 1
x_13_4_5 1
beta_12_4_5 0
x_14_0_2 0
beta_13_0_2 1
x_14_0_4 0
beta_13_0_4 1
x_14_0_5 0
beta_13_0_5 1
x_14_2_4 0
beta_13_2_4 1
x_14_2_5 1
beta_13_2_5 0
x_14_4_5 1
beta_13_4_5 0
x_15_0_2 0
beta_14_0_2 1
x_15_0_4 0
beta_14_0_4 1
x_15_0_5 0
beta_14_0_5 1
x_15_2_4 0
beta_14_2_4 1
x_15_2_5 0
beta_14_2_5 0
x_15_4_5 1
beta_14_4_5 0
x_16_0_2 0
beta_15_0_2 1
x_16_0_4 0
beta_15_0_4 1
x_16_0_5 0
beta_15_0_5 1
x_15_0_6 0
x_16_0_6 0
beta_15_0_6 1
x_16_2_4 0
beta_15_2_4 1
x_16_2_5 0
beta_15_2_5 1
x_15_2_6 0
x_16_2_6 0
beta_15_2_6 1
x_16_4_5 1
beta_15_4_5 0
x_15_4_6 1
x_16_4_6 1
beta_15_4_6 0
x_15_5_6 0
x_16_5_6 0
beta_15_5_6 1
x_17_0_2 0
beta_16_0_2 1
x_17_0_4 0
beta_16_0_4 1
x_17_0_5 0
beta_16_0_5 1
x_17_2_4 0
beta_16_2_4 1
x_17_2_5 0
beta_16_2_5 1
x_17_4_5 1
beta_16_4_5 0
x_18_0_2 0
beta_17_0_2 1
x_18_0_4 0
beta_17_0_4 1
x_18_0_5 0
beta_17_0_5 1
x_18_2_4 0
beta_17_2_4 1
x_18_2_5 0
beta_17_2_5 1
x_18_4_5 1
beta_17_4_5 0
x_19_0_2 0
beta_18_0_2 1
x_19_0_4 0
beta_18_0_4 1
x_19_0_5 0
beta_18_0_5 1
x_19_2_4 0
beta_18_2_4 1
x_19_2_5 0
beta_18_2_5 1
x_19_4_5 1
beta_18_4_5 0
x_20_0_2 0
beta_19_0_2 1
x_20_0_4 0
beta_19_0_4 1
x_20_2_4 0
beta_19_2_4 1
x_21_0_2 0
beta_20_0_2 1
x_21_0_4 0
beta_20_0_4 1
x_21_2_4 0
beta_20_2_4 1
x_22_0_2 0
beta_21_0_2 1
x_22_0_4 0
beta_21_0_4 1
x_22_2_4 0
beta_21_2_4 1
x_23_0_2 0
beta_22_0_2 1
x_23_0_4 0
beta_22_0_4 1
x_23_2_4 0
beta_22_2_4 1
x_24_0_2 0
beta_23_0_2 1
x_24_0_4 0
beta_23_0_4 1
x_24_2_4 0
beta_23_2_4 1
x_25_0_2 0
beta_24_0_2 1
x_25_0_4 0
beta_24_0_4 1
x_25_2_4 0
beta_24_2_4 1
x_26_0_2 0
beta_25_0_2 1
x_26_0_4 0
beta_25_0_4 1
x_25_0_8 0
x_26_0_8 0
beta_25_0_8 1
x_26_2_4 0
beta_25_2_4 1
x_25_2_8 0
x_26_2_8 0
beta_25_2_8 1
x_25_4_8 1
x_26_4_8 1
beta_25_4_8 0
x_27_0_2 0
beta_26_0_2 1
x_27_0_4 0
beta_26_0_4 1
x_27_0_8 0
beta_26_0_8 1
x_27_2_4 0
beta_26_2_4 1
x_27_2_8 0
beta_26_2_8 1
x_27_4_8 1
beta_26_4_8 0
x_28_0_2 0
beta_27_0_2 1
x_28_0_4 0
beta_27_0_4 1
x_28_0_8 0
beta_27_0_8 1
x_27_0_9 0
x_28_0_9 0
beta_27_0_9 1
x_28_2_4 0
beta_27_2_4 1
x_28_2_8 1
beta_27_2_8 0
x_27_2_9 0
x_28_2_9 1
beta_27_2_9 0
x_28_4_8 1
beta_27_4_8 0
x_27_4_9 1
x_28_4_9 1
beta_27_4_9 0
x_27_8_9 1
x_28_8_9 1
beta_27_8_9 0
x_29_0_2 0
beta_28_0_2 1
x_29_0_4 0
beta_28_0_4 1
x_29_0_8 0
beta_28_0_8 1
x_29_0_9 0
beta_28_0_9 1
x_29_2_4 0
beta_28_2_4 1
x_29_2_8 1
beta_28_2_8 0
x_29_2_9 1
beta_28_2_9 0
x_29_4_8 1
beta_28_4_8 0
x_29_4_9 1
beta_28_4_9 0
x_29_8_9 1
beta_28_8_9 0
x_30_0_2 0
beta_29_0_2 1
x_30_0_4 0
beta_29_0_4 1
x_30_0_8 0
beta_29_0_8 1
x_30_0_9 0
beta_29_0_9 1
x_30_2_4 0
beta_29_2_4 1
x_30_2_8 1
beta_29_2_8 0
x_30_2_9 1
beta_29_2_9 0
x_30_4_8 1
beta_29_4_8 0
x_30_4_9 1
beta_29_4_9 0
x_30_8_9 1
beta_29_8_9 0
x_31_0_2 0
beta_30_0_2 1
x_31_0_4 0
beta_30_0_4 1
x_31_0_8 0
beta_30_0_8 1
x_31_0_9 0
beta_30_0_9 1
x_31_2_4 0
beta_30_2_4 1
x_31_2_8 1
beta_30_2_8 0
x_31_2_9 1
beta_30_2_9 0
x_31_4_8 1
beta_30_4_8 0
x_31_4_9 1
beta_30_4_9 0
x_31_8_9 1
beta_30_8_9 0
x_32_0_2 0
beta_31_0_2 1
x_32_0_4 0
beta_31_0_4 1
x_32_0_8 0
beta_31_0_8 1
x_32_0_9 0
beta_31_0_9 1
x_32_2_4 0
beta_31_2_4 1
x_32_2_8 1
beta_31_2_8 0
x_32_2_9 1
beta_31_2_9 0
x_32_4_8 1
beta_31_4_8 0
x_32_4_9 1
beta_31_4_9 0
x_32_8_9 1
beta_31_8_9 0
x_33_0_2 0
beta_32_0_2 1
x_33_0_4 0
beta_32_0_4 1
x_33_0_8 0
beta_32_0_8 1
x_33_0_9 0
beta_32_0_9 1
x_33_2_4 0
beta_32_2_4 1
x_33_2_8 1
beta_32_2_8 0
x_33_2_9 1
beta_32_2_9 0
x_33_4_8 1
beta_32_4_8 0
x_33_4_9 1
beta_32_4_9 0
x_33_8_9 1
beta_32_8_9 0
x_34_0_2 0
beta_33_0_2 1
x_34_0_4 0
beta_33_0_4 1
x_34_0_8 0
beta_33_0_8 1
x_34_0_9 0
beta_33_0_9 1
x_34_2_4 0
beta_33_2_4 1
x_34_2_8 1
beta_33_2_8 0
x_34_2_9 1
beta_33_2_9 0
x_34_4_8 1
beta_33_4_8 0
x_34_4_9 1
beta_33_4_9 0
x_34_8_9 1
beta_33_8_9 0
x_35_0_2 0
beta_34_0_2 1
x_35_0_4 0
beta_34_0_4 1
x_35_0_8 0
beta_34_0_8 1
x_35_0_9 0
beta_34_0_9 1
x_35_2_4 0
beta_34_2_4 1
x_35_2_8 1
beta_34_2_8 0
x_35_2_9 1
beta_34_2_9 0
x_35_4_8 1
beta_34_4_8 0
x_35_4_9 1
beta_34_4_9 0
x_35_8_9 1
beta_34_8_9 0
x_36_0_2 0
beta_35_0_2 1
x_36_0_4 0
beta_35_0_4 1
x_36_0_8 0
beta_35_0_8 1
x_36_0_9 0
beta_35_0_9 1
x_36_2_4 0
beta_35_2_4 1
x_36_2_8 1
beta_35_2_8 0
x_36_2_9 1
beta_35_2_9 0
x_36_4_8 1
beta_35_4_8 0
x_36_4_9 1
beta_35_4_9 0
x_36_8_9 1
beta_35_8_9 0
x_37_0_2 0
beta_36_0_2 1
x_37_0_4 0
beta_36_0_4 1
x_37_0_8 0
beta_36_0_8 1
x_37_0_9 0
beta_36_0_9 1
x_37_2_4 0
beta_36_2_4 1
x_37_2_8 1
beta_36_2_8 0
x_37_2_9 1
beta_36_2_9 0
x_37_4_8 1
beta_36_4_8 0
x_37_4_9 1
beta_36_4_9 0
x_37_8_9 1
beta_36_8_9 0
x_38_0_2 0
beta_37_0_2 1
x_38_0_4 0
beta_37_0_4 1
x_38_0_8 0
beta_37_0_8 1
x_38_0_9 0
beta_37_0_9 1
x_37_0_10 0
x_38_0_10 0
beta_37_0_10 1
x_38_2_4 0
beta_37_2_4 1
x_38_2_8 1
beta_37_2_8 0
x_38_2_9 1
beta_37_2_9 0
x_37_2_10 0
x_38_2_10 0
beta_37_2_10 1
x_38_4_8 1
beta_37_4_8 0
x_38_4_9 1
beta_37_4_9 0
x_37_4_10 1
x_38_4_10 1
beta_37_4_10 0
x_38_8_9 1
beta_37_8_9 0
x_37_8_10 0
x_38_8_10 0
beta_37_8_10 1
x_37_9_10 0
x_38_9_10 0
beta_37_9_10 1
x_39_0_2 0
beta_38_0_2 1
x_39_0_4 0
beta_38_0_4 1
x_39_0_8 0
beta_38_0_8 1
x_39_0_9 0
beta_38_0_9 1
x_39_0_10 0
beta_38_0_10 1
x_39_2_4 0
beta_38_2_4 1
x_39_2_8 1
beta_38_2_8 0
x_39_2_9 1
beta_38_2_9 0
x_39_2_10 0
beta_38_2_10 1
x_39_4_8 1
beta_38_4_8 0
x_39_4_9 1
beta_38_4_9 0
x_39_4_10 1
beta_38_4_10 0
x_39_8_9 1
beta_38_8_9 0
x_39_8_10 0
beta_38_8_10 1
x_39_9_10 0
beta_38_9_10 1
x_40_2_4 0
beta_39_2_4 1
x_40_2_8 1
beta_39_2_8 0
x_40_2_9 1
beta_39_2_9 0
x_40_2_10 0
beta_39_2_10 1
x_40_4_8 1
beta_39_4_8 0
x_40_4_9 1
beta_39_4_9 0
x_40_4_10 1
beta_39_4_10 0
x_40_8_9 1
beta_39_8_9 0
x_40_8_10 0
beta_39_8_10 1
x_40_9_10 0
beta_39_9_10 1
x_41_2_4 0
beta_40_2_4 1
x_41_2_9 1
beta_40_2_9 0
x_41_2_10 0
beta_40_2_10 1
x_41_4_9 1
beta_40_4_9 0
x_41_4_10 1
beta_40_4_10 0
x_41_9_10 0
beta_40_9_10 1
x_42_2_4 0
beta_41_2_4 1
x_42_2_10 0
beta_41_2_10 1
x_42_4_10 1
beta_41_4_10 0
x_43_2_4 0
beta_42_2_4 1
x_43_2_10 0
beta_42_2_10 1
x_42_2_11 0
x_43_2_11 0
beta_42_2_11 1
x_43_4_10 1
beta_42_4_10 0
x_42_4_11 1
x_43_4_11 1
beta_42_4_11 0
x_42_10_11 0
x_43_10_11 0
beta_42_10_11 1
x_44_2_4 0
beta_43_2_4 1
x_44_2_10 0
beta_43_2_10 1
x_44_2_11 0
beta_43_2_11 1
x_44_4_10 1
beta_43_4_10 0
x_44_4_11 1
beta_43_4_11 0
x_44_10_11 0
beta_43_10_11 1
x_45_2_4 0
beta_44_2_4 1
x_45_2_10 0
beta_44_2_10 1
x_45_2_11 0
beta_44_2_11 1
x_45_4_10 1
beta_44_4_10 0
x_45_4_11 1
beta_44_4_11 0
x_45_10_11 0
beta_44_10_11 1
x_46_2_4 0
beta_45_2_4 1
x_46_2_10 0
beta_45_2_10 1
x_46_2_11 0
beta_45_2_11 1
x_46_4_10 1
beta_45_4_10 0
x_46_4_11 1
beta_45_4_11 0
x_46_10_11 0
beta_45_10_11 1
x_47_2_4 0
beta_46_2_4 1
x_47_2_10 1
beta_46_2_10 0
x_47_2_11 1
beta_46_2_11 0
x_47_4_10 1
beta_46_4_10 0
x_47_4_11 1
beta_46_4_11 0
x_47_10_11 0
beta_46_10_11 1
x_48_2_10 1
beta_47_2_10 0
x_48_2_11 0
beta_47_2_11 0
x_48_10_11 0
beta_47_10_11 1
x_49_2_10 1
beta_48_2_10 0
x_49_2_11 0
beta_48_2_11 1
x_48_2_12 1
x_49_2_12 1
beta_48_2_12 0
x_49_10_11 0
beta_48_10_11 1
x_48_10_12 1
x_49_10_12 1
beta_48_10_12 0
x_48_11_12 1
x_49_11_12 1
beta_48_11_12 0
x_50_2_10 1
beta_49_2_10 0
x_50_2_11 0
beta_49_2_11 1
x_50_2_12 1
beta_49_2_12 0
x_50_10_11 0
beta_49_10_11 1
x_50_10_12 1
beta_49_10_12 0
x_50_11_12 1
beta_49_11_12 0
x_51_2_10 1
beta_50_2_10 0
x_51_2_11 0
beta_50_2_11 1
x_51_10_11 0
beta_50_10_11 1
x_52_2_10 1
beta_51_2_10 0
x_52_2_11 0
beta_51_2_11 1
x_52_10_11 0
beta_51_10_11 1
x_53_2_10 1
beta_52_2_10 0
b_0 2
x_0_0_1 0
b_1 2
delta_0_0 1
x_2_0_3 1
b_2 1
delta_1_0 1
x_1_2_0 1
x_2_2_0 1
x_2_2_3 1
delta_1_2 1
b_3 2
delta_2_0 1
x_3_2_0 1
delta_2_2 1
b_4 1
delta_3_0 9.2307692307692313e-01
x_4_2_0 1
delta_3_2 1
x_3_4_0 1
x_3_4_2 1
x_4_4_0 1
x_4_4_2 1
delta_3_4 1
b_5 1
delta_4_0 1
x_5_2_0 1
delta_4_2 9.2307692307692313e-01
x_5_4_0 1
x_5_4_2 1
delta_4_4 1
x_4_5_0 1
x_4_5_2 0
x_4_5_4 0
x_5_5_0 1
x_5_5_2 1
x_5_5_4 0
delta_4_5 1
b_6 1
delta_5_0 1
x_6_2_0 1
delta_5_2 1
x_6_4_0 1
x_6_4_2 1
delta_5_4 1
x_6_5_0 1
x_6_5_2 1
x_6_5_4 0
delta_5_5 1
b_7 1
delta_6_0 1
x_7_2_0 1
delta_6_2 1
x_7_4_0 1
x_7_4_2 1
delta_6_4 1
x_7_5_0 1
x_7_5_2 1
x_7_5_4 0
delta_6_5 1
b_8 1
delta_7_0 1
x_8_2_0 1
delta_7_2 1
x_8_4_0 1
x_8_4_2 1
delta_7_4 1
x_8_5_0 1
x_8_5_2 0
x_8_5_4 0
delta_7_5 8.8461538461538469e-01
b_9 1
delta_8_0 1
x_9_2_0 1
delta_8_2 1
x_9_4_0 1
x_9_4_2 1
delta_8_4 1
x_9_5_0 1
x_9_5_2 0
x_9_5_4 0
delta_8_5 1
b_10 1
delta_9_0 1
x_10_2_0 1
delta_9_2 9.2307692307692313e-01
x_10_4_0 1
x_10_4_2 1
delta_9_4 1
x_10_5_0 1
x_10_5_2 1
x_10_5_4 0
delta_9_5 1
b_11 1
delta_10_0 1
x_11_2_0 1
delta_10_2 1
x_11_4_0 1
x_11_4_2 1
delta_10_4 1
x_11_5_0 1
x_11_5_2 1
x_11_5_4 0
delta_10_5 1
b_12 1
delta_11_0 1
x_12_2_0 1
delta_11_2 1
x_12_4_0 1
x_12_4_2 1
delta_11_4 1
x_12_5_0 1
x_12_5_2 1
x_12_5_4 0
delta_11_5 1
b_13 1
delta_12_0 1
x_13_2_0 1
delta_12_2 1
x_13_4_0 1
x_13_4_2 1
delta_12_4 1
x_13_5_0 1
x_13_5_2 1
x_13_5_4 0
delta_12_5 1
b_14 1
delta_13_0 1
x_14_2_0 1
delta_13_2 1
x_14_4_0 1
x_14_4_2 1
delta_13_4 1
x_14_5_0 1
x_14_5_2 0
x_14_5_4 0
delta_13_5 9.2307692307692313e-01
x_15_0_7 0
b_15 0
delta_14_0 9.2307692307692313e-01
x_15_2_0 1
x_15_2_7 0
delta_14_2 8.4615384615384626e-01
x_15_4_0 1
x_15_4_2 1
x_15_4_7 1
delta_14_4 1
x_15_5_0 1
x_15_5_2 1
x_15_5_4 0
x_15_5_7 0
delta_14_5 1
b_16 0
delta_15_0 1
x_16_2_0 1
delta_15_2 1
x_16_4_0 1
x_16_4_2 1
delta_15_4 9.2307692307692313e-01
x_16_5_0 1
x_16_5_2 1
x_16_5_4 0
delta_15_5 1
x_15_6_0 1
x_15_6_2 1
x_15_6_4 0
x_15_6_5 1
x_15_6_7 0
x_16_6_0 1
x_16_6_2 1
x_16_6_4 0
x_16_6_5 1
delta_15_6 1
b_17 0
delta_16_0 1
x_17_2_0 1
delta_16_2 1
x_17_4_0 1
x_17_4_2 1
delta_16_4 9.2307692307692313e-01
x_17_5_0 1
x_17_5_2 1
x_17_5_4 0
delta_16_5 1
b_18 0
delta_17_0 1
x_18_2_0 1
delta_17_2 1
x_18_4_0 1
x_18_4_2 1
delta_17_4 1
x_18_5_0 1
x_18_5_2 1
x_18_5_4 0
delta_17_5 1
b_19 0
delta_18_0 1
x_19_2_0 1
delta_18_2 1
x_19_4_0 1
x_19_4_2 1
delta_18_4 1
x_19_5_0 1
x_19_5_2 1
x_19_5_4 0
delta_18_5 1
b_20 0
delta_19_0 1
x_20_2_0 1
delta_19_2 1
x_20_4_0 1
x_20_4_2 1
delta_19_4 9.2307692307692313e-01
b_21 0
delta_20_0 1
x_21_2_0 1
delta_20_2 1
x_21_4_0 1
x_21_4_2 1
delta_20_4 1
b_22 0
delta_21_0 1
x_22_2_0 1
delta_21_2 1
x_22_4_0 1
x_22_4_2 1
delta_21_4 1
b_23 0
delta_22_0 1
x_23_2_0 1
delta_22_2 1
x_23_4_0 1
x_23_4_2 1
delta_22_4 1
b_24 0
delta_23_0 1
x_24_2_0 1
delta_23_2 1
x_24_4_0 1
x_24_4_2 1
delta_23_4 1
b_25 0
delta_24_0 1
x_25_2_0 1
delta_24_2 1
x_25_4_0 1
x_25_4_2 1
delta_24_4 1
b_26 0
delta_25_0 1
x_26_2_0 1
delta_25_2 1
x_26_4_0 1
x_26_4_2 1
delta_25_4 1
x_25_8_0 1
x_25_8_2 1
x_25_8_4 0
x_26_8_0 1
x_26_8_2 1
x_26_8_4 0
delta_25_8 1
b_27 0
delta_26_0 1
x_27_2_0 1
delta_26_2 1
x_27_4_0 1
x_27_4_2 1
delta_26_4 1
x_27_8_0 1
x_27_8_2 1
x_27_8_4 0
delta_26_8 1
b_28 0
delta_27_0 1
x_28_2_0 1
delta_27_2 1
x_28_4_0 1
x_28_4_2 1
delta_27_4 1
x_28_8_0 1
x_28_8_2 0
x_28_8_4 0
delta_27_8 9.2307692307692313e-01
x_27_9_0 1
x_27_9_2 1
x_27_9_4 0
x_27_9_8 0
x_28_9_0 1
x_28_9_2 0
x_28_9_4 0
x_28_9_8 0
delta_27_9 9.2307692307692313e-01
b_29 0
delta_28_0 1
x_29_2_0 1
delta_28_2 1
x_29_4_0 1
x_29_4_2 1
delta_28_4 1
x_29_8_0 1
x_29_8_2 0
x_29_8_4 0
delta_28_8 1
x_29_9_0 1
x_29_9_2 0
x_29_9_4 0
x_29_9_8 0
delta_28_9 1
b_30 0
delta_29_0 1
x_30_2_0 1
delta_29_2 1
x_30_4_0 1
x_30_4_2 1
delta_29_4 1
x_30_8_0 1
x_30_8_2 0
x_30_8_4 0
delta_29_8 1
x_30_9_0 1
x_30_9_2 0
x_30_9_4 0
x_30_9_8 0
delta_29_9 1
b_31 0
delta_30_0 1
x_31_2_0 1
delta_30_2 1
x_31_4_0 1
x_31_4_2 1
delta_30_4 1
x_31_8_0 1
x_31_8_2 0
x_31_8_4 0
delta_30_8 1
x_31_9_0 1
x_31_9_2 0
x_31_9_4 0
x_31_9_8 0
delta_30_9 1
b_32 0
delta_31_0 1
x_32_2_0 1
delta_31_2 1
x_32_4_0 1
x_32_4_2 1
delta_31_4 1
x_32_8_0 1
x_32_8_2 0
x_32_8_4 0
delta_31_8 1
x_32_9_0 1
x_32_9_2 0
x_32_9_4 0
x_32_9_8 0
delta_31_9 1
b_33 0
delta_32_0 1
x_33_2_0 1
delta_32_2 1
x_33_4_0 1
x_33_4_2 1
delta_32_4 1
x_33_8_0 1
x_33_8_2 0
x_33_8_4 0
delta_32_8 1
x_33_9_0 1
x_33_9_2 0
x_33_9_4 0
x_33_9_8 0
delta_32_9 1
b_34 0
delta_33_0 1
x_34_2_0 1
delta_33_2 1
x_34_4_0 1
x_34_4_2 1
delta_33_4 1
x_34_8_0 1
x_34_8_2 0
x_34_8_4 0
delta_33_8 1
x_34_9_0 1
x_34_9_2 0
x_34_9_4 0
x_34_9_8 0
delta_33_9 1
b_35 0
delta_34_0 1
x_35_2_0 1
delta_34_2 1
x_35_4_0 1
x_35_4_2 1
delta_34_4 1
x_35_8_0 1
x_35_8_2 0
x_35_8_4 0
delta_34_8 1
x_35_9_0 1
x_35_9_2 0
x_35_9_4 0
x_35_9_8 0
delta_34_9 1
b_36 0
delta_35_0 1
x_36_2_0 1
delta_35_2 1
x_36_4_0 1
x_36_4_2 1
delta_35_4 1
x_36_8_0 1
x_36_8_2 0
x_36_8_4 0
delta_35_8 1
x_36_9_0 1
x_36_9_2 0
x_36_9_4 0
x_36_9_8 0
delta_35_9 1
b_37 0
delta_36_0 1
x_37_2_0 1
delta_36_2 1
x_37_4_0 1
x_37_4_2 1
delta_36_4 1
x_37_8_0 1
x_37_8_2 0
x_37_8_4 0
delta_36_8 1
x_37_9_0 1
x_37_9_2 0
x_37_9_4 0
x_37_9_8 0
delta_36_9 1
b_38 0
delta_37_0 1
x_38_2_0 1
delta_37_2 1
x_38_4_0 1
x_38_4_2 1
delta_37_4 1
x_38_8_0 1
x_38_8_2 0
x_38_8_4 0
delta_37_8 1
x_38_9_0 1
x_38_9_2 0
x_38_9_4 0
x_38_9_8 0
delta_37_9 1
x_37_10_0 1
x_37_10_2 1
x_37_10_4 0
x_37_10_8 1
x_37_10_9 1
x_38_10_0 1
x_38_10_2 1
x_38_10_4 0
x_38_10_8 1
x_38_10_9 1
delta_37_10 1
b_39 0
delta_38_0 1
x_39_2_0 1
delta_38_2 1
x_39_4_0 1
x_39_4_2 1
delta_38_4 1
x_39_8_0 1
x_39_8_2 0
x_39_8_4 0
delta_38_8 1
x_39_9_0 1
x_39_9_2 0
x_39_9_4 0
x_39_9_8 0
delta_38_9 1
x_39_10_0 1
x_39_10_2 1
x_39_10_4 0
x_39_10_8 1
x_39_10_9 1
delta_38_10 1
b_40 1
delta_39_2 1
x_40_4_2 1
delta_39_4 1
x_40_8_2 0
x_40_8_4 0
delta_39_8 1
x_40_9_2 0
x_40_9_4 0
x_40_9_8 0
delta_39_9 1
x_40_10_2 1
x_40_10_4 0
x_40_10_8 1
x_40_10_9 1
delta_39_10 1
b_41 1
delta_40_2 9.2307692307692313e-01
x_41_4_2 1
delta_40_4 9.2307692307692313e-01
x_41_9_2 0
x_41_9_4 0
delta_40_9 1
x_41_10_9 1
x_41_10_2 1
x_41_10_4 0
delta_40_10 9.2307692307692313e-01
b_42 1
delta_41_2 9.2307692307692313e-01
x_42_4_2 1
delta_41_4 1
x_42_10_2 1
x_42_10_4 0
delta_41_10 9.2307692307692313e-01
b_43 1
delta_42_2 1
x_43_4_2 1
delta_42_4 1
x_43_10_2 1
x_43_10_4 0
delta_42_10 1
x_42_11_2 1
x_42_11_10 1
x_42_11_4 0
x_43_11_2 1
x_43_11_10 1
x_43_11_4 0
delta_42_11 1
b_44 1
delta_43_2 1
x_44_4_2 1
delta_43_4 1
x_44_10_2 1
x_44_10_4 0
delta_43_10 1
x_44_11_2 1
x_44_11_10 1
x_44_11_4 0
delta_43_11 1
b_45 1
delta_44_2 1
x_45_4_2 1
delta_44_4 1
x_45_10_2 1
x_45_10_4 0
delta_44_10 1
x_45_11_2 1
x_45_11_10 1
x_45_11_4 0
delta_44_11 1
b_46 1
delta_45_2 1
x_46_4_2 1
delta_45_4 1
x_46_10_2 1
x_46_10_4 0
delta_45_10 1
x_46_11_2 1
x_46_11_10 1
x_46_11_4 0
delta_45_11 1
b_47 1
delta_46_2 1
x_47_4_2 1
delta_46_4 1
x_47_10_2 0
x_47_10_4 0
delta_46_10 4.6153846153846156e-01
x_47_11_2 0
x_47_11_10 1
x_47_11_4 0
delta_46_11 9.2307692307692313e-01
b_48 1
delta_47_2 1
x_48_10_2 0
delta_47_10 1
x_48_11_2 1
x_48_11_10 1
delta_47_11 1
b_49 1
delta_48_2 1
x_49_10_2 0
delta_48_10 1
x_49_11_2 1
x_49_11_10 1
delta_48_11 1
x_48_12_11 0
x_48_12_2 0
x_48_12_10 0
x_49_12_11 0
x_49_12_2 0
x_49_12_10 0
delta_48_12 1
b_50 1
delta_49_2 1
x_50_10_2 0
delta_49_10 1
x_50_11_2 1
x_50_11_10 1
delta_49_11 1
x_50_12_11 0
x_50_12_2 0
x_50_12_10 0
delta_49_12 1
b_51 2
delta_50_2 1
x_51_10_2 0
delta_50_10 1
x_51_11_2 1
x_51_11_10 1
delta_50_11 1
b_52 2
delta_51_2 1
x_52_10_2 0
delta_51_10 1
x_52_11_2 1
x_52_11_10 1
delta_51_11 1
b_53 2
delta_52_2 1
x_53_10_2 0
delta_52_10 1
x_0_1_0 1
x_2_3_0 0
x_2_3_2 0
x_15_7_0 1
x_15_7_2 1
x_15_7_4 0
x_15_7_5 1
x_15_7_6 1
